NAME : Unnamed.639.tour
COMMENT : Length = 639
COMMENT : Found by LKH [Keld Helsgaun] Sat Oct 04 21:49:48 2014
TYPE : TOUR
DIMENSION : 37
TOUR_SECTION
1
2
5
6
7
12
15
20
34
30
27
29
31
36
22
17
14
4
8
13
26
21
32
35
33
25
24
28
23
18
19
16
9
10
11
3
37
-1
EOF
